
******************************************************************************
This program contains Ipopt, a library for large-scale nonlinear optimization.
 Ipopt is released as open source code under the Eclipse Public License (EPL).
         For more information visit http://projects.coin-or.org/Ipopt
******************************************************************************

This is Ipopt version 3.12.12, running with linear solver mumps.
NOTE: Other linear solvers might be more efficient (see Ipopt documentation).

Number of nonzeros in equality constraint Jacobian...:    51220
Number of nonzeros in inequality constraint Jacobian.:      401
Number of nonzeros in Lagrangian Hessian.............:        0

Total number of variables............................:      701
                     variables with only lower bounds:        0
                variables with lower and upper bounds:      701
                     variables with only upper bounds:        0
Total number of equality constraints.................:      510
Total number of inequality constraints...............:      201
        inequality constraints with only lower bounds:        0
   inequality constraints with lower and upper bounds:      201
        inequality constraints with only upper bounds:        0

iter    objective    inf_pr   inf_du lg(mu)  ||d||  lg(rg) alpha_du alpha_pr  ls
   0  7.3192375e-01 5.94e+01 7.39e-01   0.0 0.00e+00    -  0.00e+00 0.00e+00   0
   1  5.3482450e-01 4.59e+01 1.96e+01  -0.9 1.00e+00    -  1.33e-02 2.94e-01f  1
   2  4.6367531e-01 3.96e+01 6.21e+01  -1.2 8.92e-01    -  4.66e-01 1.38e-01f  1
   3  3.8403125e-01 3.50e+01 5.48e+01  -1.6 7.43e-01    -  4.43e-01 1.77e-01h  1
   4  3.2081304e-01 3.06e+01 4.52e+01  -1.2 8.04e-01    -  1.77e-01 1.76e-01h  1
   5  2.7789083e-01 2.73e+01 9.82e+01  -1.7 8.24e-01    -  2.88e-01 1.39e-01h  1
   6  1.8143134e-01 2.23e+01 3.44e+01  -1.4 8.60e-01    -  5.72e-01 3.85e-01h  1
   7  1.1646672e-01 1.67e+01 4.15e+01  -1.5 7.18e-01    -  7.62e-01 4.29e-01h  1
   8  5.6878297e-02 1.04e+01 2.61e+01  -1.6 6.58e-01    -  7.49e-01 8.19e-01h  1
   9  1.0393234e-01 1.66e+01 1.11e+02  -1.2 1.27e+00    -  1.00e+00 9.18e-01f  1
iter    objective    inf_pr   inf_du lg(mu)  ||d||  lg(rg) alpha_du alpha_pr  ls
  10  1.1114471e-01 2.51e+00 4.34e+01  -1.3 7.27e-01    -  5.47e-01 9.90e-01f  1
  11  1.1572497e-01 1.51e-01 2.94e+00  -2.2 7.38e-02    -  9.83e-01 9.91e-01h  1
  12  1.1475322e-01 2.38e-03 4.07e-03  -3.7 3.62e-03    -  1.00e+00 1.00e+00h  1
  13  7.1241255e-02 3.55e+00 1.56e+02  -4.3 1.28e-01    -  9.98e-01 9.58e-01h  1
  14  7.2031635e-02 1.16e-01 7.53e+02  -3.7 1.72e-01    -  1.00e+00 9.50e-01h  1
  15  4.8217727e-02 6.98e+00 7.42e-02  -3.8 2.70e-01    -  1.00e+00 1.00e+00h  1
  16  4.5964214e-02 4.04e-01 3.46e-02  -4.2 2.15e-01    -  1.00e+00 1.00e+00h  1
  17  3.9100699e-02 1.37e+00 6.36e-02  -4.5 2.78e-01    -  1.00e+00 1.00e+00h  1
  18  3.7310749e-02 3.37e-01 7.51e-02  -4.7 2.30e-01    -  1.00e+00 1.00e+00h  1
  19  3.7086777e-02 1.63e-01 1.33e+03  -4.3 5.39e-01    -  9.54e-01 4.64e-01h  1
iter    objective    inf_pr   inf_du lg(mu)  ||d||  lg(rg) alpha_du alpha_pr  ls
  20  3.7245996e-02 8.66e-02 1.24e+00  -4.3 1.64e-01    -  9.89e-01 1.00e+00h  1
  21  3.8819272e-02 4.28e-01 1.46e+03  -4.1 5.91e-01    -  9.22e-01 5.17e-01h  1
  22  3.9091394e-02 7.07e-03 9.10e-02  -4.2 1.93e-01    -  1.00e+00 1.00e+00h  1
  23  3.6214664e-02 3.03e-01 1.25e-01  -4.7 1.76e-01    -  1.00e+00 1.00e+00h  1
  24  3.4719967e-02 1.91e-01 1.34e-01  -5.0 1.74e-01    -  1.00e+00 1.00e+00h  1
  25  3.3969259e-02 5.53e-02 1.24e-01  -5.4 1.50e-01    -  1.00e+00 1.00e+00h  1
  26  3.4070000e-02 9.62e-03 1.24e-01  -5.1 1.22e-01    -  1.00e+00 1.00e+00h  1
  27  3.5212335e-02 1.53e-01 9.23e+02  -4.0 1.95e+00    -  2.03e-01 1.13e-01h  1
  28  3.3809893e-02 1.02e-01 5.42e+02  -4.6 3.40e-01    -  4.41e-01 3.63e-01h  1
  29  3.3705053e-02 9.22e-02 2.77e+03  -4.2 8.86e-01    -  1.00e+00 2.79e-01f  1
iter    objective    inf_pr   inf_du lg(mu)  ||d||  lg(rg) alpha_du alpha_pr  ls
  30  3.2232204e-02 5.52e-02 3.12e-02  -4.6 2.50e-01    -  1.00e+00 1.00e+00h  1
  31  2.9852670e-02 1.84e-01 2.45e-02  -5.2 3.43e-01    -  1.00e+00 1.00e+00h  1
  32  2.9382072e-02 6.86e-02 3.06e-03  -5.5 2.19e-01    -  1.00e+00 1.00e+00h  1
  33  2.9182955e-02 3.16e-02 8.13e-02  -5.7 1.70e-01    -  9.99e-01 1.00e+00h  1
  34  2.9104994e-02 4.63e-03 4.10e-03  -5.8 1.13e-01    -  1.00e+00 1.00e+00h  1
  35  2.8991427e-02 6.68e-03 1.38e-03  -6.3 7.61e-02    -  1.00e+00 1.00e+00h  1
  36  2.8957761e-02 3.45e-03 1.93e-03  -6.5 7.93e-02    -  1.00e+00 1.00e+00h  1
  37  2.8944913e-02 2.25e-03 2.02e-04  -6.6 9.77e-02    -  1.00e+00 1.00e+00h  1
  38  2.8967294e-02 3.58e-03 8.24e-04  -6.4 6.46e-02    -  1.00e+00 1.00e+00h  1
  39  2.8957850e-02 6.90e-04 2.39e-04  -6.5 4.37e-02    -  1.00e+00 1.00e+00h  1
iter    objective    inf_pr   inf_du lg(mu)  ||d||  lg(rg) alpha_du alpha_pr  ls
  40  2.8940967e-02 2.59e-03 4.64e-02  -6.7 7.97e-02    -  1.00e+00 9.96e-01h  1
  41  2.8995900e-02 1.89e-02 9.61e-04  -6.2 1.32e-01    -  1.00e+00 1.00e+00h  1
  42  2.8975256e-02 1.26e-03 7.46e-04  -6.3 5.03e-02    -  1.00e+00 1.00e+00h  1
  43  2.8975038e-02 1.64e-04 4.42e-04  -6.3 9.70e-03    -  1.00e+00 1.00e+00h  1
  44  2.8933119e-02 4.66e-03 6.32e-04  -6.8 6.15e-02    -  1.00e+00 1.00e+00h  1
  45  2.8919199e-02 4.10e-03 1.98e-04  -7.4 4.11e-02    -  1.00e+00 1.00e+00h  1
  46  2.8916446e-02 4.06e-03 7.83e-04  -7.4 7.99e-02    -  1.00e+00 1.00e+00h  1
  47  2.8914163e-02 1.47e-04 2.29e-04  -7.7 2.00e-02    -  1.00e+00 1.00e+00h  1
  48  2.8914440e-02 1.76e-04 1.94e-04  -8.3 1.95e-02    -  1.00e+00 1.00e+00h  1
  49  2.8917354e-02 1.24e-03 4.21e-04  -7.4 5.02e-02    -  1.00e+00 1.00e+00h  1
iter    objective    inf_pr   inf_du lg(mu)  ||d||  lg(rg) alpha_du alpha_pr  ls
  50  2.8916468e-02 2.40e-04 2.85e-04  -7.5 3.20e-02    -  1.00e+00 1.00e+00h  1
  51  2.8916121e-02 1.95e-04 3.85e-05  -7.5 1.59e-02    -  1.00e+00 1.00e+00h  1
  52  2.8916461e-02 1.24e-06 2.45e-05  -7.5 1.05e-02    -  1.00e+00 1.00e+00h  1
  53  2.8913765e-02 1.43e-04 2.27e-01  -8.3 2.60e-02    -  1.00e+00 9.06e-01h  1
  54  2.8913373e-02 1.03e-04 1.12e-01  -8.4 7.06e-02    -  1.00e+00 6.37e-01h  1
  55  2.8912488e-02 9.97e-04 7.84e-05  -8.7 3.48e-01    -  1.00e+00 1.00e+00f  1
  56  2.8912174e-02 8.02e-04 5.49e-01  -8.0 2.18e+00    -  7.06e-01 6.60e-02h  1
  57  2.8910838e-02 2.99e-03 1.92e-01  -8.2 6.64e-02    -  3.89e-01 7.90e-01h  1
  58  2.8908896e-02 7.88e-04 1.14e-01  -8.2 3.47e-02    -  2.73e-02 1.00e+00f  1
  59  2.8912091e-02 1.66e-04 1.63e-04  -8.2 1.31e-02    -  1.00e+00 1.00e+00h  1
iter    objective    inf_pr   inf_du lg(mu)  ||d||  lg(rg) alpha_du alpha_pr  ls
  60  2.8912271e-02 4.46e-06 4.75e-05  -8.4 5.02e-03    -  1.00e+00 1.00e+00h  1
  61  2.8911906e-02 6.62e-07 5.53e-06  -9.1 2.15e-03    -  1.00e+00 1.00e+00h  1
  62  2.8911856e-02 1.20e-06 2.75e-05  -9.4 2.55e-03    -  1.00e+00 1.00e+00h  1
  63  2.8911902e-02 6.54e-06 6.48e-05  -9.1 5.19e-03    -  1.00e+00 1.00e+00h  1
  64  2.8911874e-02 4.87e-06 1.34e-05  -9.1 3.00e-03    -  1.00e+00 1.00e+00h  1
  65  2.8911879e-02 2.74e-07 9.17e-06  -9.1 2.34e-03    -  1.00e+00 1.00e+00h  1
  66  2.8911816e-02 6.01e-07 5.62e-07  -9.8 2.67e-03    -  1.00e+00 1.00e+00h  1

Number of Iterations....: 66

                                   (scaled)                 (unscaled)
Objective...............:   2.8911816290561731e-02    2.8911816290561731e-02
Dual infeasibility......:   5.6185929614857076e-07    5.6185929614857076e-07
Constraint violation....:   6.1868774006157424e-08    6.0054947929645447e-07
Complementarity.........:   2.7008334713753699e-10    2.7008334713753699e-10
Overall NLP error.......:   5.6185929614857076e-07    6.0054947929645447e-07


Number of objective function evaluations             = 67
Number of objective gradient evaluations             = 67
Number of equality constraint evaluations            = 67
Number of inequality constraint evaluations          = 67
Number of equality constraint Jacobian evaluations   = 67
Number of inequality constraint Jacobian evaluations = 67
Number of Lagrangian Hessian evaluations             = 0
Total CPU secs in IPOPT (w/o function evaluations)   =      5.047
Total CPU secs in NLP function evaluations           =      4.866

EXIT: Optimal Solution Found.
